Fe_mp-13_primitive                      
   1.00000000000000     
     2.8292823722561002    0.0000000000000000    0.0000000000000000
     0.0000000000000000    2.8292823722561002    0.0000000000000000
     0.0000000000000000    0.0000000000000000    2.8292823722561002
   Fe
     2
Direct
  0.0000000000000000  0.0000000000000000  0.0000000000000000
  0.5000000000000000  0.5000000000000000  0.5000000000000000
 
  0.00000000E+00  0.00000000E+00  0.00000000E+00
  0.00000000E+00  0.00000000E+00  0.00000000E+00
